<?xml version="1.0" encoding="UTF-8"?><osil xmlns="os.optimizationservices.org"   xmlns:xsi="http://www.w3.org/2001/XMLSchema-instance" xsi:schemaLocation="os.optimizationservices.org http://www.optimizationservices.org/schemas/2.0/OSiL.xsd" ><instanceHeader><name>tln2</name></instanceHeader><instanceData><variables numberOfVariables="8"><var name="b1" type="B" ub="1"/><var name="b2" type="B" ub="1"/><var name="i3" type="I" ub="15"/><var name="i4" type="I" ub="15"/><var name="i5" type="I" ub="5"/><var name="i6" type="I" ub="5"/><var name="i7" type="I" ub="5"/><var name="i8" type="I" ub="5"/></variables><objectives numberOfObjectives="1"><obj maxOrMin="min" weight="1" name="defObj_objvar" numberOfObjCoef="4"><coef idx="0">.1</coef><coef idx="1">.2</coef><coef idx="2">1</coef><coef idx="3">1</coef></obj></objectives><constraints numberOfConstraints="12"><con name="e2" ub="1.9e3"/><con name="e3" ub="1.9e3"/><con name="e4" ub="-1.7e3"/><con name="e5" ub="-1.7e3"/><con name="e6" ub="5"/><con name="e7" ub="5"/><con name="e8" ub="0"/><con name="e9" ub="0"/><con name="e10" ub="0"/><con name="e11" ub="0"/><con name="e12" ub="-8"/><con name="e13" ub="-7"/></constraints><linearConstraintCoefficients numberOfValues="20"><start><el mult="11" incr="2">0</el><el>20</el><el>20</el></start><colIdx><el>4</el><el>6</el><el>5</el><el>7</el><el>4</el><el>6</el><el>5</el><el>7</el><el>4</el><el>6</el><el>5</el><el>7</el><el>0</el><el>2</el><el>1</el><el>3</el><el>0</el><el>2</el><el>1</el><el>3</el></colIdx><value><el>4.6e2</el><el>5.7e2</el><el>4.6e2</el><el>5.7e2</el><el>-4.6e2</el><el>-5.7e2</el><el>-4.6e2</el><el>-5.7e2</el><el mult="5">1</el><el>-1</el><el>1</el><el>-1</el><el>-15</el><el>1</el><el>-15</el><el>1</el></value></linearConstraintCoefficients><quadraticCoefficients  numberOfQuadraticTerms="4"><qTerm  idx="10"  idxOne="2"  idxTwo="4"  coef="-1"/><qTerm  idx="10"  idxOne="3"  idxTwo="5"  coef="-1"/><qTerm  idx="11"  idxOne="2"  idxTwo="6"  coef="-1"/><qTerm  idx="11"  idxOne="3"  idxTwo="7"  coef="-1"/></quadraticCoefficients></instanceData></osil>
